(set-info :smt-lib-version 2.6)
(set-logic UF)
(set-info :source |
Generated by: David Deharbe, CLEARSY
Generated on: 2019-09-09
Generator: bxml;pog;pog2smt (Atelier B)
Application: Event-B
Target solver: CVC4, Z3
|)
(set-info :license "https://creativecommons.org/licenses/by-nc/4.0/")
(set-info :category "industrial")
(set-info :status unknown)
; Prelude
(declare-sort U 0)
(declare-fun |*i| (U U) U)
(declare-fun |+i| (U U) U)
(declare-fun |-i| (U U) U)
(declare-fun idiv (U U) U)
(declare-fun |*r| (U U) U)
(declare-fun |+r| (U U) U)
(declare-fun |-r| (U U) U)
(declare-fun rdiv (U U) U)
(declare-fun modulo (U U) U)
(declare-fun |<i| (U U) Bool)
(declare-fun |<=i| (U U) Bool)
(declare-fun |>i| (U U) Bool)
(declare-fun |>=i| (U U) Bool)
(declare-fun |<r| (U U) Bool)
(declare-fun |<=r| (U U) Bool)
(declare-fun |>r| (U U) Bool)
(declare-fun |>=r| (U U) Bool)
(declare-fun iuminus (U) U)
(declare-fun ruminus (U) U)
(declare-fun TRUE () U)
(declare-fun FALSE () U)
(assert (not (= TRUE FALSE)))
(declare-fun empty () U)
(declare-fun bool (Bool) U)
(declare-fun BOOL () U)
(declare-fun INT () U)
(declare-fun INTEGER () U)
(declare-fun NAT () U)
(declare-fun NAT1 () U)
(declare-fun NATURAL () U)
(declare-fun NATURAL1 () U)
(declare-fun FLOAT () U)
(declare-fun MaxInt () U)
(declare-fun MinInt () U)
(declare-fun |STRING| () U)
(declare-fun REAL () U)
(declare-fun set_prod (U U) U)
(declare-fun set_diff (U U) U)
(declare-fun mapplet (U U) U)
(declare-fun |**i| (U U) U)
(declare-fun |**r| (U U) U)
(declare-fun |+->| (U U) U)
(declare-fun |+->>| (U U) U)
(declare-fun |-->| (U U) U)
(declare-fun |-->>| (U U) U)
(declare-fun |<->| (U U) U)
(declare-fun |>+>| (U U) U)
(declare-fun |>->| (U U) U)
(declare-fun |>+>>| (U U) U)
(declare-fun |>->>| (U U) U)
(declare-fun |->| (U U) U)
(declare-fun interval (U U) U)
(declare-fun composition (U U) U)
(declare-fun binary_inter (U U) U)
(declare-fun restriction_head (U U) U)
(declare-fun semicolon (U U) U)
(declare-fun |<+| (U U) U)
(declare-fun |<-| (U U) U)
(declare-fun domain_subtraction (U U) U)
(declare-fun domain_restriction (U U) U)
(declare-fun |><| (U U) U)
(declare-fun parallel_product (U U) U)
(declare-fun binary_union (U U) U)
(declare-fun restriction_tail (U U) U)
(declare-fun concatenate (U U) U)
(declare-fun range_restriction (U U) U)
(declare-fun range_subtraction (U U) U)
(declare-fun image (U U) U)
(declare-fun apply (U U) U)
(declare-fun prj1 (U U) U)
(declare-fun prj2 (U U) U)
(declare-fun iterate (U U) U)
(declare-fun |const| (U U) U)
(declare-fun rank (U U) U)
(declare-fun father (U U) U)
(declare-fun subtree (U U) U)
(declare-fun arity (U U) U)
(declare-fun |+f| (U U) U)
(declare-fun |-f| (U U) U)
(declare-fun |*f| (U U) U)
(declare-fun |fdiv| (U U) U)
(declare-fun tbin (U U U) U)
(declare-fun son (U U U) U)
(declare-fun mem (U U) Bool)
(declare-fun subset (U U) Bool)
(declare-fun strict_subset (U U) Bool)
(declare-fun |<=f| (U U) Bool)
(declare-fun |<f| (U U) Bool)
(declare-fun |>=f| (U U) Bool)
(declare-fun |>f| (U U) Bool)
(declare-fun imax (U) U)
(declare-fun imin (U) U)
(declare-fun rmax (U) U)
(declare-fun rmin (U) U)
(declare-fun card (U) U)
(declare-fun dom (U) U)
(declare-fun ran (U) U)
(declare-fun POW (U) U)
(declare-fun POW1 (U) U)
(declare-fun FIN (U) U)
(declare-fun FIN1 (U) U)
(declare-fun union (U) U)
(declare-fun inter (U) U)
(declare-fun seq (U) U)
(declare-fun seq1 (U) U)
(declare-fun iseq (U) U)
(declare-fun iseq1 (U) U)
(declare-fun inverse (U) U)
(declare-fun size (U) U)
(declare-fun perm (U) U)
(declare-fun first (U) U)
(declare-fun last (U) U)
(declare-fun id (U) U)
(declare-fun closure (U) U)
(declare-fun closure1 (U) U)
(declare-fun tail (U) U)
(declare-fun front (U) U)
(declare-fun reverse (U) U)
(declare-fun rev (U) U)
(declare-fun conc (U) U)
(declare-fun succ (U) U)
(declare-fun pred (U) U)
(declare-fun rel (U) U)
(declare-fun fnc (U) U)
(declare-fun real (U) U)
(declare-fun floor (U) U)
(declare-fun ceiling (U) U)
(declare-fun tree (U) U)
(declare-fun btree (U) U)
(declare-fun top (U) U)
(declare-fun sons (U) U)
(declare-fun prefix (U) U)
(declare-fun postfix (U) U)
(declare-fun sizet (U) U)
(declare-fun mirror (U) U)
(declare-fun left (U) U)
(declare-fun right (U) U)
(declare-fun infix (U) U)
(declare-fun ubin (U) U)
(declare-fun SEQ (U) U)
(declare-fun SET (U) U)
; Opaque formulas
(declare-fun e0 () U)
(declare-fun e41 () U)
(declare-fun g_s0_1 () U)
(declare-fun g_s1_2 () U)
(declare-fun g_s10_11 () U)
(declare-fun g_s11_12 () U)
(declare-fun g_s12_13 () U)
(declare-fun g_s13_14 () U)
(declare-fun g_s14_15 () U)
(declare-fun g_s15_16 () U)
(declare-fun g_s16_17 () U)
(declare-fun g_s17_18 () U)
(declare-fun g_s18_19 () U)
(declare-fun g_s19_20 () U)
(declare-fun g_s2_3 () U)
(declare-fun g_s20_21 () U)
(declare-fun g_s21_22 () U)
(declare-fun g_s22_23 () U)
(declare-fun g_s23_24 () U)
(declare-fun g_s24_25 () U)
(declare-fun g_s25_26 () U)
(declare-fun g_s26_27 () U)
(declare-fun g_s27_28 () U)
(declare-fun g_s28_29 () U)
(declare-fun g_s29_30 () U)
(declare-fun g_s3_4 () U)
(declare-fun g_s30_31 () U)
(declare-fun g_s31_32 () U)
(declare-fun g_s32_33 () U)
(declare-fun g_s33_34 () U)
(declare-fun g_s34_35 () U)
(declare-fun g_s35_36 () U)
(declare-fun g_s36_37 () U)
(declare-fun g_s37_38 () U)
(declare-fun g_s38_39 () U)
(declare-fun g_s39_40 () U)
(declare-fun g_s4_5 () U)
(declare-fun g_s40_42 () U)
(declare-fun g_s41_43 () U)
(declare-fun g_s42_44 () U)
(declare-fun g_s43_45 () U)
(declare-fun g_s44_46 () U)
(declare-fun g_s45_47 () U)
(declare-fun g_s46_48 () U)
(declare-fun g_s47_49 () U)
(declare-fun g_s48_50 () U)
(declare-fun g_s49_51 () U)
(declare-fun g_s5_6 () U)
(declare-fun g_s50_52 () U)
(declare-fun g_s51_53 () U)
(declare-fun g_s52_54 () U)
(declare-fun g_s53_55 () U)
(declare-fun g_s54_56 () U)
(declare-fun g_s55_58 () U)
(declare-fun g_s56_57 () U)
(declare-fun g_s57_59 () U)
(declare-fun g_s58_61 () U)
(declare-fun g_s59_60 () U)
(declare-fun g_s6_7 () U)
(declare-fun g_s60_62 () U)
(declare-fun g_s61_63 () U)
(declare-fun g_s62_64 () U)
(declare-fun g_s63_65 () U)
(declare-fun g_s68_66 () U)
(declare-fun g_s7_8 () U)
(declare-fun g_s70_67 () U)
(declare-fun g_s8_9 () U)
(declare-fun g_s9_10 () U)
; Defines
(define-fun |def_B definitions| () Bool (and (= NAT (interval e0 MaxInt)) (= INT (interval MinInt MaxInt))))
(define-fun |def_ctx| () Bool (and (= g_s0_1 (SET (mapplet g_s9_10 (mapplet g_s8_9 (mapplet g_s7_8 (mapplet g_s6_7 (mapplet g_s5_6 (mapplet g_s4_5 (mapplet g_s3_4 (mapplet g_s2_3 g_s1_2)))))))))) (= g_s10_11 (SET (mapplet g_s18_19 (mapplet g_s17_18 (mapplet g_s16_17 (mapplet g_s15_16 (mapplet g_s14_15 (mapplet g_s13_14 (mapplet g_s12_13 g_s11_12))))))))) (= g_s19_20 (SET (mapplet g_s22_23 (mapplet g_s21_22 g_s20_21)))) (= g_s23_24 (SET (mapplet g_s25_26 g_s24_25))) (= g_s26_27 (SET (mapplet g_s29_30 (mapplet g_s28_29 g_s27_28)))) (= g_s30_31 (SET (mapplet g_s34_35 (mapplet g_s33_34 (mapplet g_s32_33 g_s31_32))))) (not (= g_s35_36 empty)) (not (= g_s36_37 empty)) (= g_s37_38 INTEGER) (subset g_s38_39 NAT) (= g_s38_39 (interval e41 g_s39_40)) (mem g_s40_42 g_s38_39) (subset g_s41_43 NAT) (= g_s41_43 (interval e41 g_s42_44)) (mem g_s43_45 g_s41_43) (mem g_s44_46 (perm g_s41_43)) (mem g_s45_47 NAT) (subset g_s46_48 g_s35_36) (mem g_s47_49 g_s46_48) (mem g_s48_50 (perm g_s46_48)) (subset g_s49_51 g_s36_37) (mem g_s50_52 g_s49_51) (mem g_s51_53 (perm g_s49_51)) (= (card g_s38_39) (card g_s49_51)) (mem g_s52_54 NAT1) (mem g_s53_55 NATURAL1) (subset g_s54_56 NATURAL) (= g_s54_56 (interval e41 g_s52_54)) (mem g_s53_55 g_s54_56) (mem g_s55_58 (|>->| g_s56_57 g_s56_57)) (= g_s55_58 (SET (mapplet (mapplet g_s59_60 g_s58_61) (mapplet (mapplet g_s58_61 g_s59_60) (mapplet g_s57_59 g_s57_59)))))))
(define-fun |def_seext| () Bool true)
(define-fun |def_lprp| () Bool true)
(define-fun |def_inprp| () Bool true)
(define-fun |def_inext| () Bool true)
(define-fun |def_inv| () Bool (and (subset g_s60_62 g_s46_48) (subset g_s61_63 g_s46_48) (= (binary_inter g_s61_63 g_s60_62) empty) (subset g_s62_64 g_s49_51) (subset g_s63_65 g_s49_51) (= (binary_inter g_s63_65 g_s62_64) empty)))
(define-fun |def_ass| () Bool true)
(define-fun |def_cst| () Bool true)
(define-fun |def_sets| () Bool true)
; PO group 0 
(push 1)
(assert |def_B definitions|)
(assert |def_ctx|)
(assert |def_cst|)
(assert |def_lprp|)
(assert |def_inprp|)
(assert |def_inext|)
(assert |def_seext|)
(assert |def_inv|)
(assert |def_ass|)
; PO 1 in group 0
(push 1)
(assert (not (subset empty g_s46_48)))
(check-sat)
(pop 1)
; PO 2 in group 0
(push 1)
(assert (not (subset g_s46_48 g_s46_48)))
(set-info :status unknown)
(check-sat)
(pop 1)
; PO 3 in group 0
(push 1)
(assert (not (= (binary_inter empty g_s46_48) empty)))
(set-info :status unknown)
(check-sat)
(pop 1)
(pop 1)
; PO group 1 
(push 1)
(assert |def_B definitions|)
(assert |def_ctx|)
(assert |def_cst|)
(assert |def_lprp|)
(assert |def_inprp|)
(assert |def_inext|)
(assert |def_seext|)
(assert |def_inv|)
(assert |def_ass|)
; PO 1 in group 1
(push 1)
(assert (not (subset empty g_s49_51)))
(set-info :status unknown)
(check-sat)
(pop 1)
; PO 2 in group 1
(push 1)
(assert (not (subset g_s49_51 g_s49_51)))
(set-info :status unknown)
(check-sat)
(pop 1)
; PO 3 in group 1
(push 1)
(assert (not (= (binary_inter empty g_s49_51) empty)))
(set-info :status unknown)
(check-sat)
(pop 1)
(pop 1)
; PO group 2 
(push 1)
(assert |def_B definitions|)
(assert |def_ctx|)
(assert |def_cst|)
(assert |def_lprp|)
(assert |def_inprp|)
(assert |def_inext|)
(assert |def_seext|)
(assert |def_inv|)
(assert |def_ass|)
(assert (not (= g_s60_62 empty)))
(define-fun lh_1 () Bool (mem g_s68_66 g_s46_48))
(define-fun lh_2 () Bool (mem g_s68_66 g_s60_62))
; PO 1 in group 2
(push 1)
(assert (not (=> (and lh_1 lh_2) (subset (set_diff g_s60_62 (SET g_s68_66)) g_s46_48))))
(set-info :status unknown)
(check-sat)
(pop 1)
; PO 2 in group 2
(push 1)
(assert (not (=> (and lh_1 lh_2) (subset (binary_union g_s61_63 (SET g_s68_66)) g_s46_48))))
(set-info :status unknown)
(check-sat)
(pop 1)
; PO 3 in group 2
(push 1)
(assert (not (=> (and lh_1 lh_2) (= (binary_inter (binary_union g_s61_63 (SET g_s68_66)) (set_diff g_s60_62 (SET g_s68_66))) empty))))
(set-info :status unknown)
(check-sat)
(pop 1)
(pop 1)
; PO group 3 
(push 1)
(assert |def_B definitions|)
(assert |def_ctx|)
(assert |def_cst|)
(assert |def_lprp|)
(assert |def_inprp|)
(assert |def_inext|)
(assert |def_seext|)
(assert |def_inv|)
(assert |def_ass|)
(assert (not (= g_s62_64 empty)))
(define-fun lh_1 () Bool (mem g_s70_67 g_s49_51))
(define-fun lh_2 () Bool (mem g_s70_67 g_s62_64))
; PO 1 in group 3
(push 1)
(assert (not (=> (and lh_1 lh_2) (subset (set_diff g_s62_64 (SET g_s70_67)) g_s49_51))))
(set-info :status unknown)
(check-sat)
(pop 1)
; PO 2 in group 3
(push 1)
(assert (not (=> (and lh_1 lh_2) (subset (binary_union g_s63_65 (SET g_s70_67)) g_s49_51))))
(set-info :status unknown)
(check-sat)
(pop 1)
; PO 3 in group 3
(push 1)
(assert (not (=> (and lh_1 lh_2) (= (binary_inter (binary_union g_s63_65 (SET g_s70_67)) (set_diff g_s62_64 (SET g_s70_67))) empty))))
(set-info :status unknown)
(check-sat)
(pop 1)
(pop 1)
(exit)